    1000
     141
     794         2
     793         1
     790         1
     788         1
     786         1
     782         1
     777         1
     775         1
     772         1
     769         1
     767         1
     765         2
     760         1
     755         1
     743         2
     731         1
     725         1
     710         1
     704         1
     700         1
     699         1
     682         1
     665         3
     662         1
     661         1
     660         1
     655         1
     653         1
     652         1
     648         1
     647         1
     632         1
     617         1
     603         1
     599         1
     596         1
     588         1
     574         1
     564         1
     563         1
     561         1
     552         1
     541         1
     534         2
     525         2
     514         1
     512         1
     509         2
     504         1
     489         1
     487         1
     482         1
     481         1
     477         1
     474         1
     473         1
     472         1
     460         1
     456         1
     453         1
     452         1
     447         1
     435         1
     429         1
     427         2
     425         1
     421         1
     417         2
     416         1
     408         1
     399         1
     394         1
     393         2
     382         1
     376         1
     374         1
     370         1
     355         1
     336         1
     329         2
     327         1
     324         1
     323         1
     319         1
     316         1
     315         1
     312         1
     306         1
     297         2
     295         1
     293         1
     292         1
     291         1
     284         1
     281         1
     279         4
     278         1
     276         1
     273         2
     262         2
     256         1
     254         1
     253         1
     247         1
     241         1
     227         1
     226         1
     198         1
     197         1
     194         1
     192         1
     183         1
     182         1
     179         1
     176         1
     171         1
     156         1
     155         1
     154         1
     153         1
     151         1
     148         1
     143         2
     136         1
     132         1
     127         2
     126         1
     118         2
     117         1
     106         1
      95         1
      94         2
      91         1
      90         1
      80         1
      77         2
      75         1
      64         1
      57         1
      51         1
      50         1
